(declare-fun it985 () Int)
(declare-fun it970 () Int)
(declare-fun it952 () Int)
(declare-fun i11 () Int)
(declare-fun i13 () Int)
(declare-fun i9 () Int)
(declare-fun it986 () Int)
(declare-fun i3 () Int)
(assert (let ((a!1 (not (<= (+ i9 (* (- 1) i13) (* (- 2) i11)) 2)))
      (a!2 (+ i9
              (* (- 1) i13)
              (* (- 2) i11 (exp 2 (+ (- 1) it952)))
              (* (- 4) (exp 2 (+ (- 1) it952)))))
      (a!3 (not (<= (+ i9 (* (- 1) i13) (* (- 2) i11)) 3)))
      (a!4 (+ i9
              (* (- 1) i13)
              (* (- 2) i11 (exp 2 (+ (- 1) it952 it970)))
              (* (- 4) (exp 2 (+ (- 1) it952 it970)))
              (* 2 (exp 2 (+ (- 1) it970)))))
      (a!5 (+ i13
              (* (- 1) i9)
              (* 2 (exp 2 (+ (- 1) it970)))
              (* i11 (exp 2 (+ it970 it952)))
              (exp 2 (+ 1 it970 it952))
              (* (- 2) (exp 2 it970))))
      (a!6 (= (+ i9
                 (* (- 1) i13)
                 (* (- 2) i11 (exp 2 it952))
                 (* (- 4) (exp 2 it952)))
              (- 1)))
      (a!7 (* (- 2) (* i11 (exp 2 (+ it970 it952)))))
      (a!9 (+ i9
              (* (- 1) i13)
              (* (- 4) (exp 2 (+ (- 1) it985)))
              (* (- 2) i11 (exp 2 (+ (- 1) it985 it970 it952)))
              (* (- 2) (exp 2 (+ it970 it952 it985)))
              (exp 2 (+ it970 it985))
              (exp 2 it985)))
      (a!10 (+ i9
               (* (- 1) i13)
               (* (- 4) (exp 2 (+ (- 1) it985 it986)))
               (* 2 (exp 2 (+ (- 1) it986)))
               (* (- 2) i11 (exp 2 (+ (- 1) it985 it986 it970 it952)))
               (* (- 2) (exp 2 (+ it970 it952 it985 it986)))
               (exp 2 (+ it970 it985 it986))
               (exp 2 (+ it986 it985))))
      (a!11 (+ i13
               (* (- 1) i9)
               (* 2 (exp 2 (+ (- 1) it986)))
               (exp 2 (+ 1 it986 it985))
               (* (- 2) (exp 2 it986))
               (* i11 (exp 2 (+ it970 it952 it985 it986)))
               (exp 2 (+ 1 it970 it952 it986 it985))
               (* (- 1) (exp 2 (+ it970 it985 it986)))
               (* (- 1) (exp 2 (+ it986 it985)))))
      (a!12 (+ i9
               (* (- 1) i13)
               (* (- 4) (exp 2 it985))
               (* (- 2) i11 (exp 2 (+ it970 it952 it985)))
               (* (- 2) (exp 2 (+ 1 it985 it970 it952)))
               (exp 2 (+ 1 it970 it985))
               (exp 2 (+ 1 it985)))))
(let ((a!8 (+ i9
              (* (- 1) i13)
              a!7
              (* (- 2) (exp 2 (+ 1 it970 it952)))
              (* 2 (exp 2 it970)))))
  (and (not (<= it952 0))
       a!1
       (not (<= a!2 (- 2)))
       a!3
       (not (<= a!2 (- 1)))
       (= i3 21)
       (not (<= it970 0))
       (not (<= a!4 0))
       (not (<= a!5 (- 2)))
       a!6
       (not (<= it985 0))
       (not (<= a!8 0))
       (not (<= a!9 (- 2)))
       (not (<= a!8 1))
       (not (<= a!9 (- 1)))
       (not (<= it986 0))
       (not (<= a!10 0))
       (not (<= a!11 (- 2)))
       (= a!12 (- 1))))))
(check-sat)